0 5552 4080 2795 3362 10186 976 12218 5694 8807 174
5552 0 7342 7467 3950 12048 297 3213 1949 9145 4359
4080 7342 0 5689 7011 11491 4761 2067 886 10274 1857
2795 7467 5689 0 3430 318 10720 11822 4018 6488 2254
3362 3950 7011 3430 0 373 10340 4668 7491 2525 6065
10186 12048 11491 318 373 0 4119 6566 3170 9634 9841
976 297 4761 10720 10340 4119 0 4312 1318 3868 9308
12218 3213 2067 11822 4668 6566 4312 0 6137 11059 867
5694 1949 886 4018 7491 3170 1318 6137 0 4208 3912
8807 9145 10274 6488 2525 9634 3868 11059 4208 0 10416
174 4359 1857 2254 6065 9841 9308 867 3912 10416 0
